SECTION Graph
Nodes 596
Edges 1148
E 1 12 8
E 1 537 21
E 1 550 33
E 2 3 14
E 2 539 21
E 2 551 33
E 3 4 1
E 3 542 21
E 3 552 33
E 4 543 21
E 4 553 33
E 5 6 1
E 5 171 20
E 6 7 14
E 6 172 20
E 7 8 1
E 7 175 20
E 8 173 7
E 8 176 20
E 9 10 1
E 9 16 7
E 9 526 20
E 9 546 34
E 10 11 14
E 10 529 20
E 10 547 34
E 11 12 1
E 11 533 20
E 11 548 34
E 12 535 20
E 12 549 34
E 13 14 1
E 13 512 20
E 13 519 7
E 13 540 34
E 14 15 14
E 14 515 20
E 14 541 34
E 15 16 1
E 15 521 20
E 15 544 34
E 16 523 20
E 16 545 34
E 17 18 1
E 17 507 9
E 17 508 6
E 17 530 28
E 18 19 14
E 18 509 6
E 18 531 28
E 19 20 1
E 19 518 6
E 19 536 28
E 20 519 6
E 20 538 28
E 21 22 1
E 21 475 23
E 21 490 7
E 21 495 1
E 22 23 14
E 22 479 23
E 22 498 1
E 23 24 1
E 23 487 23
E 23 503 1
E 24 491 23
E 24 506 1
E 25 26 1
E 25 482 18
E 25 485 7
E 25 497 4
E 26 27 14
E 26 483 18
E 26 499 4
E 27 28 1
E 27 489 20
E 27 505 4
E 28 493 20
E 28 507 4
E 28 508 7
E 29 30 1
E 29 476 1
E 29 500 30
E 30 31 14
E 30 480 1
E 30 501 30
E 31 32 1
E 31 488 1
E 31 511 30
E 32 492 1
E 32 497 7
E 32 514 30
E 33 34 1
E 33 415 7
E 33 422 2
E 33 438 18
E 34 35 14
E 34 425 2
E 34 439 18
E 35 36 1
E 35 435 2
E 35 446 18
E 36 437 2
E 36 447 18
E 36 482 237
E 37 38 1
E 37 388 7
E 37 390 3
E 37 418 19
E 38 39 14
E 38 395 3
E 38 420 19
E 39 40 1
E 39 407 3
E 39 432 19
E 40 410 3
E 40 434 19
E 41 42 1
E 41 392 23
E 41 416 3
E 41 444 31
E 42 43 14
E 42 417 3
E 42 445 31
E 43 44 1
E 43 430 3
E 43 450 31
E 44 431 3
E 44 441 7
E 44 451 31
E 45 46 1
E 45 375 7
E 45 384 4
E 45 389 1
E 46 47 14
E 46 387 4
E 46 394 1
E 47 48 1
E 47 404 4
E 47 406 1
E 48 405 4
E 48 409 1
E 48 418 7
E 49 50 1
E 49 341 7
E 49 356 1
E 50 51 14
E 50 360 1
E 51 52 1
E 51 376 1
E 52 380 1
E 53 54 1
E 53 372 7
E 53 377 2
E 53 392 6
E 54 55 14
E 54 381 2
E 54 427 37
E 55 56 1
E 55 400 2
E 55 440 37
E 56 402 2
E 56 412 7
E 56 442 37
E 57 58 1
E 57 334 7
E 57 345 2
E 57 353 4
E 58 59 14
E 58 348 2
E 58 355 4
E 59 60 1
E 59 367 2
E 59 373 4
E 60 369 2
E 60 375 4
E 60 384 7
E 61 62 1
E 61 312 4
E 62 63 14
E 62 317 4
E 63 64 1
E 63 336 4
E 64 341 4
E 65 66 1
E 65 320 15
E 65 329 7
E 65 349 2
E 66 67 14
E 66 324 15
E 66 351 2
E 67 68 1
E 67 343 15
E 67 371 2
E 68 347 15
E 68 372 2
E 68 377 7
E 69 70 1
E 69 285 16
E 69 295 7
E 69 308 2
E 70 71 14
E 70 290 16
E 70 310 2
E 71 72 1
E 71 299 16
E 71 332 2
E 72 304 16
E 72 334 2
E 72 345 7
E 73 74 1
E 73 77 21
E 73 337 7
E 73 368 10
E 74 75 14
E 74 78 21
E 74 370 10
E 75 76 1
E 75 79 21
E 75 391 10
E 76 80 21
E 76 396 10
E 77 78 1
E 77 305 7
E 77 314 1
E 78 79 14
E 78 319 1
E 79 80 1
E 79 338 1
E 80 342 1
E 80 392 30
E 81 82 1
E 81 281 7
E 81 284 1
E 81 302 15
E 82 83 14
E 82 289 1
E 82 306 15
E 83 84 1
E 83 298 1
E 83 327 15
E 84 303 1
E 84 320 7
E 84 329 15
E 85 86 1
E 85 266 1
E 86 87 14
E 86 269 1
E 87 88 1
E 87 277 1
E 88 280 1
E 88 283 7
E 89 90 1
E 89 108 10
E 89 311 1
E 89 328 9
E 90 91 14
E 90 313 1
E 90 330 9
E 91 92 1
E 91 335 1
E 91 357 9
E 92 337 1
E 92 361 9
E 93 94 1
E 93 268 22
E 93 288 1
E 94 95 14
E 94 271 22
E 94 292 1
E 95 96 1
E 95 278 22
E 95 301 1
E 96 281 22
E 96 305 1
E 96 314 7
E 97 98 1
E 97 101 23
E 97 268 1
E 98 99 14
E 98 102 23
E 98 271 1
E 99 100 1
E 99 103 23
E 99 278 1
E 100 275 7
E 100 281 1
E 100 284 7
E 101 102 1
E 102 103 14
E 103 104 1
E 104 266 7
E 104 275 16
E 105 106 1
E 105 294 6
E 106 107 14
E 106 296 6
E 107 108 1
E 107 318 6
E 108 323 6
E 109 110 1
E 109 273 7
E 109 274 2
E 110 111 14
E 110 276 2
E 111 112 1
E 111 287 2
E 112 291 2
E 113 114 1
E 113 261 7
E 113 264 1
E 114 115 14
E 114 265 1
E 115 116 1
E 115 272 1
E 116 273 1
E 117 118 1
E 117 253 7
E 117 254 2
E 117 256 1
E 118 119 14
E 118 255 2
E 118 257 1
E 119 120 1
E 119 258 2
E 119 260 1
E 120 259 2
E 120 261 1
E 120 264 7
E 121 122 1
E 121 234 7
E 121 235 1
E 121 237 1
E 122 236 1
E 122 239 1
E 122 244 8
E 123 124 1
E 123 244 6
E 123 250 1
E 123 252 1
E 124 251 1
E 124 253 1
E 125 126 14
E 125 248 41
E 125 249 41
E 127 128 1
E 127 226 421
E 127 228 3
E 128 129 14
E 128 230 3
E 129 130 1
E 129 232 3
E 129 246 16
E 130 234 3
E 130 240 7
E 130 248 16
E 131 132 1
E 131 142 7
E 131 219 16
E 132 133 14
E 132 220 16
E 133 134 1
E 133 225 16
E 134 226 16
E 134 246 436
E 135 136 1
E 135 146 7
E 135 217 1
E 136 137 14
E 136 218 1
E 137 138 1
E 137 223 1
E 138 224 1
E 139 140 1
E 139 210 9
E 139 213 3
E 140 141 14
E 140 214 3
E 141 142 1
E 141 221 3
E 142 222 3
E 143 144 1
E 143 197 22
E 143 205 1
E 144 145 14
E 144 206 1
E 145 146 1
E 145 211 1
E 146 212 1
E 147 148 1
E 147 196 17
E 147 200 7
E 147 203 1
E 148 149 14
E 148 198 17
E 148 204 1
E 149 150 1
E 149 201 17
E 149 209 1
E 150 202 17
E 150 210 1
E 150 213 7
E 151 152 1
E 151 186 7
E 151 193 1
E 152 153 14
E 152 194 1
E 153 154 1
E 153 199 1
E 154 200 1
E 154 203 7
E 155 156 1
E 155 181 20
E 156 157 14
E 156 182 20
E 157 158 1
E 157 187 20
E 158 188 20
E 159 160 1
E 159 176 7
E 159 179 2
E 159 181 1
E 160 161 14
E 160 180 2
E 160 182 1
E 161 162 1
E 161 185 2
E 161 187 1
E 162 186 2
E 162 188 1
E 163 164 1
E 163 173 1
E 164 165 14
E 164 174 1
E 165 166 1
E 165 177 1
E 166 178 1
E 166 189 22
E 167 168 1
E 167 171 1
E 168 169 14
E 168 172 1
E 169 170 1
E 169 175 1
E 170 176 1
E 170 181 7
E 171 172 1
E 172 175 14
E 173 174 1
E 173 179 18
E 174 177 14
E 174 180 18
E 175 176 1
E 177 178 1
E 177 185 18
E 178 183 7
E 178 186 18
E 179 180 1
E 180 185 14
E 181 182 1
E 182 187 14
E 183 184 1
E 183 193 17
E 184 190 14
E 184 194 17
E 185 186 1
E 187 188 1
E 189 190 1
E 189 191 1
E 190 192 1
E 190 199 17
E 191 192 1
E 191 195 7
E 192 196 7
E 192 200 17
E 193 194 1
E 194 199 14
E 195 196 1
E 195 197 1
E 196 198 1
E 197 198 1
E 198 201 14
E 199 200 1
E 201 202 1
E 202 205 7
E 203 204 1
E 204 209 14
E 205 206 1
E 205 207 4
E 206 208 4
E 206 211 14
E 207 208 1
E 207 213 13
E 208 214 13
E 208 215 14
E 209 210 1
E 211 212 1
E 211 215 4
E 212 216 4
E 212 217 7
E 213 214 1
E 214 221 14
E 215 216 1
E 215 221 13
E 216 219 7
E 216 222 13
E 217 218 1
E 217 219 4
E 218 220 4
E 218 223 14
E 219 220 1
E 220 225 14
E 221 222 1
E 223 224 1
E 223 225 4
E 224 226 4
E 224 227 421
E 225 226 1
E 227 228 1
E 227 229 1
E 228 230 1
E 229 230 1
E 229 231 14
E 230 232 14
E 231 232 1
E 231 233 1
E 232 234 1
E 233 234 1
E 233 235 7
E 235 236 1
E 236 243 8
E 237 238 1
E 237 239 1
E 238 240 1
E 238 241 1
E 239 241 1
E 239 245 8
E 240 242 1
E 241 242 1
E 241 247 8
E 242 249 8
E 243 244 1
E 243 250 6
E 244 245 1
E 245 247 1
E 245 252 6
E 246 248 1
E 247 249 1
E 247 256 14
E 250 251 1
E 251 254 7
E 252 253 1
E 254 255 1
E 255 258 14
E 256 257 1
E 257 260 14
E 258 259 1
E 259 262 7
E 260 261 1
E 262 263 1
E 262 264 2
E 263 265 2
E 263 267 14
E 264 265 1
E 265 272 14
E 266 269 1
E 266 279 16
E 267 270 1
E 267 272 2
E 268 271 1
E 269 277 14
E 269 282 16
E 270 273 2
E 270 274 7
E 271 278 14
E 272 273 1
E 274 276 1
E 275 279 7
E 276 287 14
E 277 280 1
E 277 293 16
E 278 281 1
E 279 282 1
E 279 284 7
E 280 285 7
E 280 295 16
E 282 289 7
E 282 293 14
E 283 285 1
E 283 286 1
E 284 289 1
E 285 290 1
E 286 290 1
E 286 297 14
E 287 291 1
E 288 292 1
E 288 311 21
E 289 298 14
E 290 299 14
E 291 294 7
E 292 301 14
E 292 313 21
E 293 295 1
E 293 298 7
E 294 296 1
E 295 303 7
E 296 318 14
E 297 299 1
E 297 300 1
E 298 303 1
E 299 304 1
E 300 304 1
E 300 312 7
E 301 305 1
E 301 335 21
E 302 306 1
E 302 307 2
E 303 315 7
E 304 316 7
E 305 337 21
E 306 309 2
E 306 327 14
E 307 309 1
E 307 314 5
E 308 310 1
E 308 315 5
E 309 319 5
E 309 331 14
E 310 321 5
E 310 332 14
E 311 313 1
E 312 316 1
E 312 317 1
E 313 335 14
E 314 319 1
E 315 320 1
E 315 321 1
E 316 322 1
E 316 325 3
E 317 322 1
E 317 336 14
E 318 323 1
E 319 338 14
E 320 324 1
E 321 324 1
E 321 339 14
E 322 326 3
E 322 340 14
E 323 328 7
E 324 343 14
E 325 326 1
E 325 345 13
E 326 348 13
E 326 350 14
E 327 329 1
E 327 331 2
E 328 330 1
E 329 333 2
E 330 357 14
E 331 333 1
E 331 338 5
E 332 334 1
E 332 339 5
E 333 342 5
E 333 349 7
E 334 344 5
E 335 337 1
E 336 340 1
E 336 341 1
E 338 342 1
E 339 343 1
E 339 344 1
E 340 346 1
E 340 350 3
E 341 346 1
E 343 347 1
E 344 347 1
E 344 354 7
E 345 348 1
E 346 352 3
E 346 356 7
E 347 358 7
E 348 367 14
E 349 351 1
E 349 401 37
E 350 352 1
E 350 367 13
E 351 371 14
E 351 403 37
E 352 364 7
E 352 369 13
E 353 354 1
E 353 355 1
E 354 358 1
E 354 359 1
E 355 359 1
E 355 373 14
E 356 360 1
E 356 364 3
E 357 361 1
E 358 362 1
E 358 363 2
E 359 362 1
E 359 374 14
E 360 366 3
E 360 376 14
E 361 368 7
E 362 365 2
E 362 378 14
E 363 365 1
E 363 377 13
E 364 366 1
E 364 384 15
E 365 381 13
E 365 383 14
E 366 385 14
E 366 387 15
E 367 369 1
E 368 370 1
E 370 391 14
E 371 372 1
E 371 421 37
E 372 424 37
E 373 374 1
E 373 375 1
E 374 378 1
E 374 379 1
E 375 379 1
E 376 380 1
E 376 385 3
E 377 381 1
E 378 382 1
E 378 383 2
E 379 382 1
E 379 389 7
E 380 388 3
E 380 390 7
E 381 400 14
E 382 386 2
E 382 393 7
E 383 386 1
E 383 400 13
E 384 387 1
E 385 388 1
E 385 404 15
E 386 398 7
E 386 402 13
E 387 404 14
E 388 405 15
E 389 393 1
E 389 394 1
E 390 395 1
E 391 396 1
E 392 426 31
E 393 397 1
E 393 398 2
E 394 397 1
E 394 406 14
E 395 407 14
E 396 401 7
E 397 399 2
E 397 408 14
E 398 399 1
E 398 412 15
E 399 413 14
E 399 414 15
E 400 402 1
E 401 403 1
E 403 421 14
E 404 405 1
E 406 408 1
E 406 409 1
E 407 410 1
E 408 411 1
E 408 413 2
E 409 411 1
E 409 419 7
E 410 456 214
E 411 415 2
E 411 422 7
E 412 414 1
E 412 416 3
E 413 415 1
E 413 428 15
E 414 417 3
E 414 428 14
E 415 429 15
E 416 417 1
E 417 430 14
E 418 419 1
E 418 420 1
E 419 422 1
E 419 423 1
E 420 423 1
E 420 432 14
E 421 424 1
E 422 425 1
E 423 425 1
E 423 433 14
E 424 426 7
E 425 435 14
E 426 427 1
E 427 440 14
E 428 429 1
E 428 430 3
E 429 431 3
E 430 431 1
E 431 438 7
E 432 433 1
E 432 434 1
E 433 435 1
E 433 436 1
E 434 436 1
E 435 437 1
E 436 437 1
E 436 460 214
E 437 462 214
E 438 439 1
E 438 441 3
E 439 443 3
E 439 446 14
E 440 442 1
E 441 443 1
E 441 452 31
E 442 444 7
E 443 448 14
E 443 453 31
E 444 445 1
E 445 450 14
E 446 447 1
E 446 448 3
E 447 449 3
E 447 472 214
E 448 449 1
E 448 454 31
E 449 455 31
E 449 476 214
E 450 451 1
E 451 452 7
E 452 453 1
E 453 454 14
E 454 455 1
E 455 500 214
E 456 457 1
E 456 460 23
E 457 458 14
E 457 463 23
E 458 459 1
E 458 466 23
E 459 461 7
E 459 469 23
E 460 462 1
E 460 463 1
E 461 464 1
E 461 474 23
E 462 465 1
E 462 472 20
E 463 465 1
E 463 466 14
E 464 467 14
E 464 478 23
E 465 468 14
E 465 473 20
E 466 468 1
E 466 469 1
E 467 470 1
E 467 486 23
E 468 471 1
E 468 484 20
E 469 471 1
E 469 474 7
E 470 475 7
E 470 490 23
E 471 477 7
E 471 485 20
E 472 473 1
E 472 476 3
E 473 480 3
E 473 484 14
E 474 477 1
E 474 478 1
E 475 479 1
E 476 480 1
E 477 481 1
E 477 482 2
E 478 481 1
E 478 486 14
E 479 487 14
E 480 488 14
E 481 483 2
E 481 489 14
E 482 483 1
E 484 485 1
E 484 488 3
E 485 492 3
E 486 489 1
E 486 490 1
E 487 491 1
E 488 492 1
E 489 493 1
E 490 493 1
E 491 494 7
E 493 495 7
E 494 496 1
E 494 512 24
E 495 498 1
E 495 508 20
E 496 502 14
E 496 515 24
E 497 499 1
E 497 516 30
E 498 503 14
E 498 509 20
E 499 505 14
E 499 517 30
E 500 501 1
E 501 511 14
E 502 504 1
E 502 521 24
E 503 506 1
E 503 518 20
E 504 510 7
E 504 523 24
E 505 507 1
E 505 525 30
E 506 512 7
E 506 519 20
E 507 528 30
E 508 509 1
E 509 518 14
E 510 513 1
E 510 526 24
E 511 514 1
E 512 515 1
E 513 520 14
E 513 529 24
E 514 516 7
E 515 521 14
E 516 517 1
E 517 525 14
E 518 519 1
E 520 522 1
E 520 533 24
E 521 523 1
E 522 524 7
E 522 535 24
E 523 526 7
E 524 527 1
E 524 537 24
E 525 528 1
E 526 529 1
E 527 532 14
E 527 539 24
E 528 530 7
E 529 533 14
E 530 531 1
E 531 536 14
E 532 534 1
E 532 542 24
E 533 535 1
E 534 543 24
E 535 537 7
E 536 538 1
E 537 539 1
E 538 540 7
E 539 542 14
E 540 541 1
E 541 544 14
E 542 543 1
E 544 545 1
E 545 546 7
E 546 547 1
E 547 548 14
E 548 549 1
E 549 550 7
E 550 551 1
E 551 552 14
E 552 553 1
E 1 554 100000
E 2 554 100000
E 3 554 100000
E 4 554 100000
E 5 555 100000
E 6 555 100000
E 7 555 100000
E 8 555 100000
E 9 556 100000
E 10 556 100000
E 11 556 100000
E 12 556 100000
E 13 557 100000
E 14 557 100000
E 15 557 100000
E 16 557 100000
E 17 558 100000
E 18 558 100000
E 19 558 100000
E 20 558 100000
E 21 559 100000
E 22 559 100000
E 23 559 100000
E 24 559 100000
E 25 560 100000
E 26 560 100000
E 27 560 100000
E 28 560 100000
E 29 561 100000
E 30 561 100000
E 31 561 100000
E 32 561 100000
E 33 562 100000
E 34 562 100000
E 35 562 100000
E 36 562 100000
E 37 563 100000
E 38 563 100000
E 39 563 100000
E 40 563 100000
E 41 564 100000
E 42 564 100000
E 43 564 100000
E 44 564 100000
E 45 565 100000
E 46 565 100000
E 47 565 100000
E 48 565 100000
E 49 566 100000
E 50 566 100000
E 51 566 100000
E 52 566 100000
E 53 567 100000
E 54 567 100000
E 55 567 100000
E 56 567 100000
E 57 568 100000
E 58 568 100000
E 59 568 100000
E 60 568 100000
E 61 569 100000
E 62 569 100000
E 63 569 100000
E 64 569 100000
E 65 570 100000
E 66 570 100000
E 67 570 100000
E 68 570 100000
E 69 571 100000
E 70 571 100000
E 71 571 100000
E 72 571 100000
E 73 572 100000
E 74 572 100000
E 75 572 100000
E 76 572 100000
E 77 573 100000
E 78 573 100000
E 79 573 100000
E 80 573 100000
E 81 574 100000
E 82 574 100000
E 83 574 100000
E 84 574 100000
E 85 575 100000
E 86 575 100000
E 87 575 100000
E 88 575 100000
E 89 576 100000
E 90 576 100000
E 91 576 100000
E 92 576 100000
E 93 577 100000
E 94 577 100000
E 95 577 100000
E 96 577 100000
E 97 578 100000
E 98 578 100000
E 99 578 100000
E 100 578 100000
E 101 579 100000
E 102 579 100000
E 103 579 100000
E 104 579 100000
E 105 580 100000
E 106 580 100000
E 107 580 100000
E 108 580 100000
E 109 581 100000
E 110 581 100000
E 111 581 100000
E 112 581 100000
E 113 582 100000
E 114 582 100000
E 115 582 100000
E 116 582 100000
E 117 583 100000
E 118 583 100000
E 119 583 100000
E 120 583 100000
E 121 584 100000
E 122 584 100000
E 123 584 100000
E 124 584 100000
E 125 585 100000
E 126 585 100000
E 127 586 100000
E 128 586 100000
E 129 586 100000
E 130 586 100000
E 131 587 100000
E 132 587 100000
E 133 587 100000
E 134 587 100000
E 135 588 100000
E 136 588 100000
E 137 588 100000
E 138 588 100000
E 139 589 100000
E 140 589 100000
E 141 589 100000
E 142 589 100000
E 143 590 100000
E 144 590 100000
E 145 590 100000
E 146 590 100000
E 147 591 100000
E 148 591 100000
E 149 591 100000
E 150 591 100000
E 151 592 100000
E 152 592 100000
E 153 592 100000
E 154 592 100000
E 155 593 100000
E 156 593 100000
E 157 593 100000
E 158 593 100000
E 159 594 100000
E 160 594 100000
E 161 594 100000
E 162 594 100000
E 163 595 100000
E 164 595 100000
E 165 595 100000
E 166 595 100000
E 167 596 100000
E 168 596 100000
E 169 596 100000
E 170 596 100000
END

SECTION Terminals
Terminals 43
T 554
T 555
T 556
T 557
T 558
T 559
T 560
T 561
T 562
T 563
T 564
T 565
T 566
T 567
T 568
T 569
T 570
T 571
T 572
T 573
T 574
T 575
T 576
T 577
T 578
T 579
T 580
T 581
T 582
T 583
T 584
T 585
T 586
T 587
T 588
T 589
T 590
T 591
T 592
T 593
T 594
T 595
T 596
END

SECTION Tree Decomposition
c We do not guarantee that this tree decomposition has minimum width.
s td 489 17 596
b 1 126 585 125
b 2 534 543 532
b 3 553 552 4
b 4 125 249 248
b 5 342 338 333 80
b 6 353 355 57 354
b 7 357 330 91 361
b 8 363 358 377 365
b 9 368 370 361 73
b 10 369 367 60 352
b 11 390 395 37 380
b 12 391 370 75 396
b 13 401 403 349 396
b 14 402 386 400 56
b 15 405 388 404 48
b 16 105 580 106 294
b 17 407 395 39 410
b 18 416 412 417 41
b 19 421 403 371 424
b 20 426 392 427 424
b 21 429 415 428 431
b 22 434 40 432 436
b 23 112 581 111 291
b 24 440 442 55 427
b 25 444 442 41 445
b 26 450 451 43 445
b 27 452 451 453 441
b 28 116 582 115 273
b 29 454 453 448 455
b 30 456 460 410 457
b 31 458 466 459 457
b 32 461 464 459 474
b 33 467 464 486 470
b 34 475 479 21 470
b 35 483 26 481 482
b 36 101 579 102 97
b 37 491 24 487 494
b 38 492 32 488 485
b 39 496 502 515 494
b 40 500 501 29 455
b 41 504 510 523 502
b 42 511 501 31 514
b 43 513 510 520 529
b 44 551 552 2 550
b 45 516 517 497 514
b 46 522 524 535 520
b 47 525 517 505 528
b 48 549 550 12 548
b 49 527 532 539 524
b 50 547 546 10 548
b 51 530 531 528 17
b 52 545 546 16 544
b 53 138 588 137 224
b 54 536 531 19 538
b 55 540 541 13 538
b 56 543 532 542 4
b 57 5 6 555 171
b 58 52 566 51 380
b 59 155 593 156 181
b 60 158 593 157 188
b 61 163 595 164 173
b 62 167 596 168 171
b 63 179 173 159 180
b 64 183 184 193 178
b 65 189 191 190 166
b 66 195 191 196 197
b 67 201 202 198 149
b 68 203 154 147 204
b 69 207 213 205 208
b 70 209 210 204 149
b 71 61 569 62 312
b 72 222 142 221 216
b 73 227 228 224 229
b 74 231 233 232 229
b 75 235 233 121 236
b 76 237 238 239 121
b 77 240 238 242 130
b 78 243 244 236 250
b 79 64 569 63 341
b 80 246 248 129 134
b 81 249 248 242 247
b 82 251 254 124 250
b 83 252 253 123 245
b 84 255 254 118 258
b 85 256 257 117 247
b 86 259 262 120 258
b 87 260 261 119 257
b 88 263 267 265 262
b 89 268 97 93 271
b 90 270 274 273 267
b 91 275 279 104 100
b 92 276 110 287 274
b 93 85 86 575 266
b 94 283 286 88 285
b 95 288 311 292 93
b 96 296 106 294 318
b 97 297 286 299 300
b 98 302 307 306 81
b 99 308 69 310 315
b 100 323 318 108 328
b 101 325 345 326 316
b 102 495 508 498 21 493
b 103 592 152 153 151 154
b 104 86 575 87 269 266
b 105 562 34 35 36 33
b 106 490 486 21 470 493
b 107 343 67 324 339 347
b 108 344 334 339 347 354
b 109 346 340 341 352 356
b 110 348 345 326 58 367
b 111 350 340 326 367 352
b 112 351 403 349 66 371
b 113 484 488 473 468 485
b 114 593 156 157 188 181
b 115 588 137 136 135 224
b 116 92 337 576 91 361
b 117 480 30 488 476 473
b 118 359 355 354 362 374
b 119 360 50 376 366 356
b 120 591 148 147 149 150
b 121 364 384 366 352 356
b 122 589 140 141 142 139
b 123 372 371 53 68 424
b 124 373 59 355 375 374
b 125 378 383 362 374 382
b 126 379 389 375 374 382
b 127 381 377 365 400 54
b 128 469 466 471 459 474
b 129 385 388 376 366 404
b 130 387 384 366 404 46
b 131 583 119 120 118 117
b 132 465 473 468 462 463
b 133 587 133 132 131 134
b 134 6 555 7 171 172
b 135 393 397 389 382 398
b 136 394 397 389 46 406
b 137 582 114 115 273 113
b 138 567 55 54 53 56
b 139 399 397 413 414 398
b 140 584 121 122 123 124
b 141 569 63 62 312 341
b 142 564 42 44 43 41
b 143 579 103 102 97 104
b 144 571 69 70 71 72
b 145 408 397 411 413 406
b 146 409 419 411 48 406
b 147 103 102 97 99 104
b 148 449 476 447 448 455
b 149 581 111 110 109 291
b 150 580 106 107 294 108
b 151 418 420 419 48 37
b 152 574 83 81 82 84
b 153 575 87 269 266 88
b 154 443 453 441 439 448
b 155 111 110 287 109 291
b 156 102 98 97 99 104
b 157 87 269 266 277 88
b 158 106 107 294 318 108
b 159 294 318 108 291
b 160 318 108 328 291
b 161 108 328 89 291
b 162 328 89 330 291
b 163 433 423 432 435 436
b 164 422 419 425 33 411
b 165 577 94 96 95 93
b 166 578 98 97 99 100
b 167 430 428 431 43 417
b 168 570 67 66 65 68
b 169 438 441 431 439 33
b 170 573 79 77 78 80
b 171 446 35 447 439 448
b 172 572 76 74 75 73
b 173 568 59 58 57 60
b 174 114 115 273 265 113
b 175 115 272 273 265 113
b 176 565 47 48 45 46
b 177 137 136 223 135 224
b 178 472 476 473 447 462
b 179 477 471 474 481 482
b 180 478 464 486 474 481
b 181 563 38 39 40 37
b 182 558 19 20 18 17
b 183 489 486 27 493 481
b 184 479 487 22 21 470
b 185 560 25 28 26 27
b 186 557 14 15 16 13
b 187 503 23 506 498 518
b 188 127 586 128 228 226
b 189 554 2 3 4 1
b 190 532 542 4 539 524
b 191 526 510 9 529 523
b 192 133 132 131 225 134
b 193 541 14 544 13 538
b 194 595 164 165 173 166
b 195 136 223 135 218 224
b 196 542 3 4 539 524
b 197 140 141 142 139 214
b 198 141 142 221 139 214
b 199 566 51 49 50 380
b 200 143 590 144 205 197
b 201 145 590 144 211 146
b 202 596 168 169 171 170
b 203 594 162 160 161 159
b 204 537 539 1 524 535
b 205 152 153 194 151 154
b 206 153 194 151 199 154
b 207 156 157 182 188 181
b 208 157 182 187 188 181
b 209 164 165 174 173 166
b 210 165 174 173 177 166
b 211 168 169 171 172 170
b 212 169 171 172 175 170
b 213 176 175 8 170 159
b 214 174 173 180 177 166
b 215 185 161 180 177 186
b 216 182 187 188 160 181
b 217 533 535 11 520 529
b 218 187 188 160 161 181
b 219 188 162 160 161 181
b 220 184 193 178 194 190
b 221 192 191 190 200 196
b 222 193 178 194 151 190
b 223 132 131 220 225 134
b 224 51 49 50 376 380
b 225 206 144 205 208 211
b 226 202 198 149 150 205
b 227 212 211 216 146 217
b 228 215 208 211 221 216
b 229 219 216 131 217 220
b 230 223 135 218 225 224
b 231 210 204 149 150 139
b 232 552 2 3 4 550
b 233 519 13 20 506 518
b 234 230 128 228 232 229
b 235 234 233 232 130 121
b 236 521 523 502 15 515
b 237 241 238 242 239 247
b 238 63 62 336 312 341
b 239 555 7 171 172 8
b 240 253 117 123 124 245
b 241 7 171 172 175 8
b 242 62 336 317 312 341
b 243 171 172 175 8 170
b 244 8 170 173 159
b 245 170 173 159 181
b 246 556 11 12 10 9
b 247 512 515 13 506 494
b 248 264 265 262 113 120
b 249 261 113 119 120 257
b 250 509 508 18 498 518
b 251 269 266 277 282 88
b 252 272 273 267 265 113
b 253 507 505 528 17 28
b 254 110 287 109 274 291
b 255 109 274 273 291
b 256 274 273 267 291
b 257 336 317 312 340 341
b 258 273 267 265 113 291
b 259 278 99 95 271 281
b 260 267 265 262 113 291
b 261 332 334 71 310 339
b 262 265 262 113 120 291
b 263 284 289 279 81 100
b 264 329 327 65 84 333
b 265 262 113 120 258 291
b 266 290 286 299 70 285
b 267 293 277 282 298 295
b 268 307 306 309 314 81
b 269 280 277 88 285 295
b 270 301 335 292 95 305
b 271 559 24 22 23 21
b 272 321 324 310 315 339
b 273 320 324 65 84 315
b 274 319 309 338 78 314
b 275 303 298 84 295 315
b 276 304 299 72 300 316
b 277 499 517 505 26 497
b 278 437 36 435 436 462
b 279 313 90 311 335 292
b 280 317 322 312 340 341
b 281 561 31 29 30 32
b 282 331 309 327 338 333
b 283 89 330 291 90 311 576
b 284 2 3 4 539 1 550
b 285 358 377 365 347 354 362
b 286 464 486 470 459 474 481
b 287 148 147 198 204 149 150
b 288 94 96 292 95 93 271
b 289 386 383 400 56 382 398
b 290 460 410 436 457 462 463
b 291 98 97 99 271 104 100
b 292 370 74 75 361 73 396
b 293 403 349 66 371 396 424
b 294 451 453 441 44 43 445
b 295 442 55 427 41 56 445
b 296 113 119 120 257 258 291
b 297 531 19 538 18 528 17
b 298 395 38 39 410 37 380
b 299 415 428 431 33 411 413
b 300 412 417 414 41 56 398
b 301 135 218 146 217 225 224
b 302 546 10 548 9 16 544
b 303 142 221 139 214 216 131
b 304 586 128 228 226 129 130
b 305 590 144 205 197 211 146
b 306 162 160 161 159 181 186
b 307 144 205 197 208 211 146
b 308 3 4 539 1 524 550
b 309 539 1 524 550 535
b 310 1 524 550 535 12
b 311 524 550 535 12 520
b 312 550 535 12 548 520
b 313 392 427 53 80 424 41
b 314 42 44 43 417 41 445
b 315 535 11 12 548 520 529
b 316 173 159 180 181 177 166
b 317 160 161 159 180 181 186
b 318 191 190 166 200 196 197
b 319 49 50 376 380 341 356
b 320 161 159 180 181 177 186
b 321 47 404 48 45 46 406
b 322 34 35 36 425 439 33
b 323 159 180 181 177 186 166
b 324 177 186 178 166
b 325 186 178 151 166
b 326 178 194 151 190 166
b 327 194 151 199 154 190 166
b 328 199 154 190 166 200
b 329 517 505 528 26 497 514
b 330 50 376 366 380 341 356
b 331 154 190 166 200 147 204
b 332 213 150 205 208 139 214
b 333 97 99 93 271 104 100
b 334 233 232 229 130 121 236
b 335 238 242 130 239 121 247
b 336 248 242 129 130 134 247
b 337 501 31 29 30 514 455
b 338 244 236 122 123 245 250
b 339 510 9 520 529 523 502
b 340 254 118 258 117 124 250
b 341 266 277 282 279 104 88
b 342 218 146 217 220 225 224
b 343 83 327 81 82 298 84
b 344 286 299 70 88 285 300
b 345 76 74 75 73 396 80
b 346 306 309 327 314 81 82
b 347 79 75 77 338 78 80
b 348 322 312 340 326 316 341
b 349 312 340 326 300 316 341
b 350 466 471 459 474 468 457 463
b 351 24 487 22 23 506 494 21
b 352 19 538 20 18 518 528 17
b 353 487 22 23 506 494 21 470
b 354 423 432 420 419 425 435 436
b 355 74 75 361 73 78 396 80
b 356 128 228 226 232 229 129 130
b 357 25 28 26 27 497 485 482
b 358 22 23 506 494 498 21 470
b 359 31 29 30 32 488 514 455
b 360 228 226 224 232 229 129 130
b 361 99 95 93 271 281 104 100
b 362 29 30 32 488 476 514 455
b 363 190 166 200 196 147 204 197
b 364 196 147 198 204 197
b 365 147 198 204 149 150 197
b 366 198 204 149 150 205 197
b 367 204 149 150 205 197 139
b 368 150 205 197 208 139 214
b 369 30 32 488 476 473 514 455
b 370 345 326 58 367 57 72 316
b 371 388 376 366 404 48 37 380
b 372 119 120 257 118 258 117 291
b 373 257 118 258 117 247 291
b 374 38 39 40 410 420 37 380
b 375 118 258 117 124 247 250 291
b 376 39 40 410 432 420 37 380
b 377 23 506 494 498 518 21 470
b 378 117 123 124 245 247 250 291
b 379 205 197 208 211 139 214 146
b 380 40 410 432 420 436 37 380
b 381 11 12 10 548 9 520 529
b 382 208 211 221 139 214 216 146
b 383 10 548 9 520 529 16 544
b 384 211 221 139 214 216 146 217
b 385 9 520 529 523 502 16 544
b 386 523 502 15 16 544 515
b 387 502 15 16 544 515 494
b 388 337 576 91 335 361 73 305
b 389 14 15 16 544 515 13 538
b 390 15 16 544 515 13 538 494
b 391 515 13 538 506 494
b 392 13 538 20 506 494 518
b 393 242 129 130 134 239 121 247
b 394 221 139 214 216 131 146 217
b 395 216 131 146 217 220
b 396 131 146 217 220 225 134
b 397 146 217 220 225 224 134
b 398 225 226 224 134
b 399 330 291 90 311 576 91 361
b 400 226 224 232 229 129 130 134
b 401 349 66 371 396 65 333 424
b 402 232 229 129 130 134 121 236
b 403 289 282 279 81 82 100 298
b 404 129 130 134 239 121 236 247
b 405 239 121 236 122 245 247
b 406 121 236 122 123 124 245 247
b 407 236 122 123 124 245 247 250
b 408 90 311 576 91 335 292 361
b 409 311 576 91 335 292 93 361
b 410 453 441 44 43 439 448 455 445
b 411 428 431 43 417 33 411 413 414
b 412 299 70 71 88 285 72 300 316
b 413 309 327 338 78 314 81 82 333
b 414 59 355 58 367 375 57 60 374
b 415 576 91 335 292 93 361 73 305
b 416 335 292 95 93 361 73 305
b 417 96 292 95 93 271 281 305 314
b 418 538 20 506 494 18 518 528 17
b 419 32 488 476 473 497 485 514 455
b 420 277 282 279 104 298 88 285 295
b 421 55 427 400 54 53 41 56 445
b 422 488 476 473 497 468 485 514 455
b 423 505 528 17 28 26 27 497 514
b 424 508 18 498 518 17 28 21 493
b 425 384 366 404 45 46 60 352 356
b 426 334 71 310 339 347 57 72 354
b 427 376 366 404 48 37 380 341 356
b 428 486 21 27 470 493 459 474 481
b 429 69 70 71 310 285 295 315 72
b 430 67 324 66 371 65 339 347 68
b 431 383 365 400 56 362 374 382 398
b 432 340 326 367 300 316 341 352 356
b 433 75 77 361 73 338 78 396 80
b 434 35 36 447 425 435 439 33 448
b 435 397 389 411 413 414 46 406 382 398
b 436 441 44 431 43 439 33 448 455 445
b 437 427 400 54 53 80 424 41 56 445
b 438 410 432 420 436 457 462 463 37 380
b 439 471 459 474 481 468 485 482 457 463
b 440 292 95 93 271 281 361 73 305 314
b 441 355 58 367 375 57 60 354 362 374
b 442 377 365 400 54 347 53 68 354 362
b 443 77 361 73 305 338 78 314 396 80
b 444 506 494 18 498 518 528 17 21 470
b 445 18 498 518 528 17 28 21 470 493
b 446 476 473 497 468 485 514 447 462 448 455
b 447 36 447 482 425 435 436 462 439 33 448
b 448 95 93 271 281 361 73 305 314 104 100
b 449 281 361 73 305 314 104 81 100
b 450 528 17 28 26 21 27 470 493 497 514
b 451 70 71 310 88 285 295 315 72 300 316
b 452 327 338 78 314 81 82 298 65 84 333
b 453 326 58 367 57 72 300 316 341 352 356
b 454 324 66 371 65 84 310 315 339 347 68
b 455 28 26 21 27 470 493 497 485 514 482
b 456 44 431 43 417 439 33 448 455 41 445
b 457 26 21 27 470 493 481 497 485 514 482
b 458 282 279 104 81 82 100 298 88 285 295
b 459 473 497 468 485 514 447 462 463 448 455
b 460 361 73 305 338 78 314 104 81 100 396 80
b 461 432 420 419 425 435 436 457 462 463 37 380
b 462 21 27 470 493 459 474 481 497 485 514 482
b 463 459 474 481 497 468 485 514 482 457 463
b 464 366 404 48 37 45 46 380 60 341 352 356
b 465 497 468 485 514 447 482 457 462 463 448 455
b 466 389 411 413 414 45 46 406 375 374 382 398
b 467 404 48 37 45 46 380 406 60 341 352 356
b 468 420 419 425 435 436 457 462 463 48 37 380
b 469 431 43 417 439 33 448 455 411 413 414 41 445
b 470 447 482 425 435 436 457 462 463 439 33 448 455
b 471 417 439 33 448 455 411 413 414 41 56 398 445
b 472 66 371 396 65 84 333 310 315 339 347 68 424
b 473 365 400 54 347 53 68 56 354 362 374 382 398
b 474 371 396 65 84 333 310 315 339 347 53 68 424
b 475 338 78 314 104 81 82 100 298 396 65 84 333 80
b 476 419 425 435 436 457 462 463 33 411 48 37 380 406
b 477 104 81 82 100 298 396 65 84 333 88 285 295 80
b 478 298 396 65 84 333 88 285 295 315 80
b 479 71 310 88 285 295 315 339 347 57 72 300 316 354
b 480 58 367 375 57 60 72 300 316 341 352 354 356 362 374
b 481 425 435 436 457 462 463 439 33 448 455 411 48 37 380 406
b 482 400 54 347 53 68 80 424 41 56 354 362 374 382 398 445
b 483 439 33 448 455 411 413 414 48 37 380 406 41 56 398 445
b 484 396 65 84 333 310 88 285 295 315 339 347 53 68 80 424
b 485 411 413 414 48 37 45 46 380 406 375 41 56 374 382 398 445
b 486 310 88 285 295 315 339 347 53 68 80 424 57 72 300 316 354
b 487 48 37 45 46 380 406 375 41 56 60 341 352 356 374 382 398 445
b 488 347 53 68 80 424 41 56 57 72 300 316 354 362 374 382 398 445
b 489 375 41 56 57 60 72 300 316 341 352 354 356 362 374 382 398 445
1 4
4 81
81 336
336 393
393 404
404 402
393 335
402 334
402 400
400 360
360 356
356 304
404 405
405 406
406 407
407 378
407 338
378 375
375 340
375 373
373 372
372 296
372 131
296 265
296 249
265 262
335 237
262 248
262 260
334 235
260 258
258 252
252 175
175 174
174 137
304 188
356 234
406 140
378 240
338 78
336 80
340 82
340 84
373 85
265 86
335 76
335 77
249 87
334 74
260 88
258 256
137 28
240 83
334 75
400 398
360 73
256 90
256 255
398 397
397 342
397 396
342 301
396 223
396 395
301 230
223 192
395 229
395 394
394 384
384 382
394 303
382 379
379 307
379 368
307 305
368 332
230 195
192 133
384 227
382 228
303 198
307 225
305 201
368 367
367 366
366 365
365 287
366 226
367 231
365 364
287 120
364 363
363 318
363 331
318 221
331 328
328 327
327 206
327 326
206 205
326 222
205 103
222 220
305 200
195 177
177 115
198 197
197 122
226 67
231 70
318 65
318 66
331 68
326 325
220 64
115 53
325 324
324 323
323 316
323 320
320 317
317 306
316 214
320 215
306 203
306 219
214 210
219 218
210 209
218 216
209 194
216 208
208 207
207 114
316 63
316 245
194 61
114 59
114 60
245 244
244 213
213 243
243 212
243 241
212 211
241 239
211 202
239 134
202 62
134 57
255 254
254 155
155 149
254 92
149 23
303 72
332 69
375 283
283 399
399 408
408 409
409 415
415 388
415 416
416 440
440 448
440 417
448 449
449 460
460 443
460 475
475 477
475 452
477 478
478 484
484 474
484 486
486 479
474 472
486 488
488 482
488 489
489 480
489 487
487 485
482 473
485 483
483 471
485 466
487 467
471 469
467 464
479 451
472 454
480 453
483 481
481 476
481 470
476 468
468 461
469 456
470 447
477 458
482 437
480 441
473 442
466 435
456 436
461 438
443 433
452 413
479 426
473 431
469 411
464 425
464 427
451 412
451 429
454 430
453 432
470 465
465 459
459 446
447 434
458 420
437 421
441 414
436 410
465 463
463 439
446 422
463 462
462 457
457 455
455 450
422 419
462 428
450 423
448 361
472 401
453 370
461 354
458 403
438 380
433 355
427 371
439 350
455 357
450 445
445 424
445 444
380 376
419 369
444 418
444 377
376 374
369 362
418 352
377 358
362 359
358 353
353 351
417 288
452 343
471 300
467 321
456 314
437 313
442 285
438 290
433 347
413 346
431 289
411 299
427 330
330 319
412 344
432 349
349 348
434 322
420 341
421 295
428 286
423 329
361 333
333 291
401 293
355 345
355 292
410 294
374 298
352 297
359 337
418 392
344 266
347 170
348 280
322 105
341 251
346 268
286 180
329 277
291 156
291 166
293 112
345 172
330 119
392 233
319 224
392 391
280 257
251 157
156 147
224 199
391 247
391 390
390 389
390 387
387 386
386 385
385 339
385 383
383 302
383 381
381 315
389 186
389 193
157 153
408 279
147 143
386 236
339 191
381 246
257 242
315 217
315 312
153 104
242 238
388 116
416 270
312 311
238 141
311 310
310 309
309 204
309 308
308 284
308 196
284 232
284 189
196 190
452 264
478 275
474 123
466 126
454 273
454 272
476 146
476 164
468 151
447 278
441 118
442 127
435 136
435 139
435 145
435 135
436 169
413 282
413 274
426 108
426 261
431 125
411 167
425 121
425 130
412 276
429 144
430 107
430 168
432 109
432 111
459 132
446 178
446 148
434 171
420 267
420 269
421 138
414 173
414 124
410 154
439 179
422 113
428 106
428 183
423 253
361 259
370 110
354 163
403 263
371 129
350 128
357 185
424 250
424 102
369 117
377 187
374 181
352 182
359 281
353 184
351 271
288 165
343 152
321 176
314 142
333 89
293 13
293 19
292 9
292 12
294 26
294 27
298 17
298 11
297 51
297 54
337 40
337 42
268 98
399 7
199 58
283 162
409 95
387 39
339 43
339 41
302 50
302 52
193 55
143 36
104 93
312 48
141 71
311 46
232 44
141 79
190 49
190 56
285 8
290 30
289 14
299 21
344 97
344 94
329 47
295 24
295 25
286 32
184 34
286 33
329 45
475 5
162 161
161 160
160 100
160 159
159 158
158 150
158 96
150 16
480 10
458 91
441 6
429 99
410 29
457 35
419 38
370 101
380 22
371 15
350 31
300 18
351 37
313 20
56 2
232 3
END

EOF
